32      4       
11      10      8       10      
0       0       0       0       0       3       2       3       4       
6       0       0       0       2       3       11      20      28      
6       0       0       0       8       2       6       10      
7       0       0       0       2       3       5       7       10      
6       4       0       0       0       3       8       9       21      
10      0       0       8       0       3       11      21      26      
7       0       6       0       0       3       12      13      21      
10      0       0       0       9       3       15      16      19      
4       0       7       0       0       3       11      13      23      
6       2       0       0       0       3       14      20      25      
8       1       0       0       0       2       18      22      
8       0       4       0       0       3       14      17      22      
8       1       0       0       0       3       19      22      31      
4       0       0       0       7       3       15      16      30      
2       10      0       0       0       2       18      23      
5       2       0       0       0       3       24      27      31      
2       0       1       0       0       3       18      19      23      
8       0       0       0       4       1       27      
1       0       0       6       0       3       20      25      27      
2       0       0       1       0       2       24      26      
7       0       8       0       0       3       24      28      30      
6       0       3       0       0       1       25      
9       4       0       0       0       2       26      28      
1       0       0       3       0       1       29      
5       10      0       0       0       1       30      
5       0       0       8       0       1       29      
2       0       0       2       0       1       29      
7       2       0       0       0       1       31      
2       0       0       3       0       1       32      
10      7       0       0       0       1       32      
9       0       0       0       8       1       32      
0       0       0       0       0       0       